
Gurobi 12.0.2 (win64) logging started Thu Jun  5 10:49:14 2025

Set parameter LogFile to value "C:\Ioana\_uni\honours\slp\algorithm\Main_files\results\others\prox_tubules\Task_010_Sample002_irr_gurobi.log"
Gurobi Optimizer version 12.0.2 build v12.0.2rc0 (win64 - Windows 11.0 (26100.2))

CPU model: Intel(R) Core(TM) Ultra 5 125H, instruction set [SSE2|AVX|AVX2]
Thread count: 14 physical cores, 18 logical processors, using up to 18 threads

Non-default parameters:
TimeLimit  2200

Optimize a model with 47658 rows, 34801 columns and 147848 nonzeros
Model fingerprint: 0xfdb7d0ab
Variable types: 17407 continuous, 17394 integer (17394 binary)
Coefficient statistics:
  Matrix range     [1e-04, 8e+04]
  Objective range  [3e-05, 9e-01]
  Bounds range     [1e+00, 1e+03]
  RHS range        [1e+00, 1e+00]
Presolve removed 31202 rows and 21841 columns
Presolve time: 0.33s
Presolved: 16456 rows, 12960 columns, 54686 nonzeros
Variable types: 6414 continuous, 6546 integer (6546 binary)

Root relaxation: objective 1.299954e-04, 862 iterations, 0.02 seconds (0.06 work units)

    Nodes    |    Current Node    |     Objective Bounds      |     Work
 Expl Unexpl |  Obj  Depth IntInf | Incumbent    BestBd   Gap | It/Node Time

     0     0    0.00013    0    9          -    0.00013      -     -    0s
H    0     0                       0.1299954    0.00013   100%     -    0s
     0     0    0.03516    0   12    0.13000    0.03516  73.0%     -    0s
     0     0    0.10275    0    4    0.13000    0.10275  21.0%     -    0s
     0     0    0.10625    0    3    0.13000    0.10625  18.3%     -    0s
     0     0     cutoff    0         0.13000    0.13000  0.00%     -    0s

Cutting planes:
  Cover: 2
  Implied bound: 3
  Clique: 1
  MIR: 1
  Flow cover: 2
  Flow path: 4
  Network: 1
  Relax-and-lift: 3

Explored 1 nodes (1255 simplex iterations) in 0.67 seconds (0.68 work units)
Thread count was 18 (of 18 available processors)

Solution count 1: 0.129995 

Optimal solution found (tolerance 1.00e-04)
Best objective 1.299953663703e-01, best bound 1.299953663703e-01, gap 0.0000%
